TCS_Benchmarks/redos_fix/corpus2_output_distinct_1165_1164_2_0.txt
[ \n\r\t]+
([ \n\r\t]+)([\n\r]+)
[\n\r]+